networks/zoo_118_2053/zoo_118_2053-lower.txt
Number of groups: 58
Flow 1: {1 34 0} {34 15 0} {54 5 0} {5 2 0} {2 61 0} 
Flow 1: {15 54 0} Flow 2: {34 3 0} {3 62 0} 
Flow 3: {36 4 0} {4 63 0} 
Flow 3: {34 36 0} Flow 4: {5 64 0} 
Flow 5: {54 6 0} {6 65 0} 
Flow 6: {54 7 0} {7 66 0} 
Flow 7: {5 8 0} {8 67 0} 
Flow 8: {23 9 0} {9 68 0} 
Flow 8: {45 11 0} {11 22 0} {22 23 0} {15 45 0} Flow 9: {57 10 0} {10 69 0} 
Flow 9: {36 57 0} Flow 10: {11 70 0} 
Flow 11: {54 12 0} {12 71 0} 
Flow 12: {22 21 0} {21 13 0} {13 72 0} 
Flow 13: {29 14 0} {14 73 0} 
Flow 13: {15 29 0} Flow 14: {15 74 0} 
Flow 15: {34 16 0} {16 75 0} 
Flow 16: {34 33 0} {33 17 0} {17 76 0} 
Flow 17: {33 18 0} {18 77 0} 
Flow 18: {15 48 0} {48 19 0} {19 78 0} 
Flow 19: {22 20 0} {20 79 0} 
Flow 20: {21 80 0} 
Flow 21: {22 81 0} 
Flow 22: {23 82 0} 
Flow 23: {22 24 0} {24 83 0} 
Flow 24: {36 25 0} {25 84 0} 
Flow 25: {36 26 0} {26 85 0} 
Flow 26: {15 27 0} {27 86 0} 
Flow 27: {54 28 0} {28 87 0} 
Flow 28: {29 88 0} 
Flow 29: {33 31 0} {31 90 0} 
Flow 30: {31 32 0} {32 91 0} 
Flow 31: {33 92 0} 
Flow 32: {34 93 0} 
Flow 33: {33 35 0} {35 94 0} 
Flow 34: {36 95 0} 
Flow 35: {36 37 0} {37 96 0} 
Flow 36: {36 38 0} {38 97 0} 
Flow 37: {36 39 0} {39 98 0} 
Flow 38: {19 40 0} {40 99 0} 
Flow 39: {48 41 0} {41 100 0} 
Flow 40: {19 42 0} {42 101 0} 
Flow 41: {54 43 0} {43 102 0} 
Flow 42: {11 44 0} {44 103 0} 
Flow 43: {45 104 0} 
Flow 44: {48 47 0} {47 106 0} 
Flow 45: {48 107 0} 
Flow 46: {36 50 0} {50 109 0} 
Flow 47: {34 51 0} {51 110 0} 
Flow 48: {39 53 0} {53 112 0} 
Flow 49: {54 113 0} 
Flow 50: {34 55 0} {55 114 0} 
Flow 51: {15 56 0} {56 115 0} 
Flow 52: {57 116 0} 
Flow 53: {54 58 0} {58 117 0} 
Flow 54: {45 59 0} {59 118 0} 
Flow 55: {34 1 0} {1 60 0} 
Flow 55: {2 5 0} {5 54 0} {54 15 0} {15 34 0} Flow 56: {54 36 0} Flow 62: {5 11 0} Flow 65: {36 16 0} Flow 66: {15 33 0} Flow 67: {54 19 0} Flow 77: {36 35 0} Flow 86: {36 55 0} Flow 90: {3 34 0} Flow 138: {4 36 0} {36 34 0} Flow 139: {36 54 0} Flow 146: {54 11 0} Flow 151: {55 18 0} Flow 174: {7 44 0} Flow 183: {38 58 0} Flow 224: {11 43 0} Flow 226: {11 45 0} Flow 231: {16 52 0} {52 111 0} 
Flow 239: {6 54 0} Flow 293: {7 54 0} Flow 301: {44 11 0} Flow 344: {8 5 0} Flow 396: {9 23 0} {23 22 0} {22 11 0} {45 15 0} Flow 397: {11 5 0} Flow 399: {11 54 0} Flow 402: {44 7 0} Flow 413: {22 19 0} Flow 433: {19 48 0} Flow 447: {10 57 0} {57 36 0} Flow 484: {12 54 0} Flow 502: {13 21 0} {21 22 0} Flow 516: {14 29 0} {29 15 0} Flow 564: {48 46 0} {46 105 0} 
Flow 567: {48 49 0} {49 108 0} 
Flow 578: {16 34 0} Flow 579: {16 36 0} Flow 616: {18 33 0} {33 34 0} Flow 617: {33 15 0} Flow 618: {18 55 0} {55 36 0} Flow 641: {55 37 0} Flow 654: {19 54 0} Flow 662: {19 22 0} Flow 708: {20 22 0} Flow 876: {24 22 0} Flow 895: {25 36 0} Flow 946: {26 36 0} Flow 997: {27 15 0} Flow 1045: {28 54 0} Flow 1092: {29 58 0} {58 38 0} Flow 1093: {58 39 0} Flow 1111: {30 29 0} Flow 1132: {31 33 0} Flow 1184: {32 31 0} Flow 1278: {35 33 0} Flow 1279: {35 36 0} Flow 1363: {37 36 0} Flow 1377: {37 55 0} Flow 1409: {38 36 0} Flow 1440: {39 36 0} Flow 1451: {39 58 0} {58 29 0} Flow 1486: {40 19 0} Flow 1529: {41 48 0} {48 15 0} Flow 1561: {42 19 0} Flow 1612: {43 54 0} Flow 1613: {43 11 0} Flow 1699: {46 48 0} Flow 1730: {47 48 0} Flow 1798: {49 48 0} Flow 1806: {50 36 0} Flow 1810: {51 34 0} Flow 1814: {52 16 0} Flow 1842: {53 39 0} Flow 1914: {55 34 0} Flow 1944: {56 15 0} Flow 2012: {58 54 0} Flow 2049: {59 45 0} Time taken running everything: 1 seconds
