networks/zoo_118_2053/zoo_118_2053-lower.sol
<?xml version = "1.0" encoding="UTF-8" standalone="yes"?>
<CPLEXSolution version="1.2">
 <header
   problemName="networks/zoo_118_2053/zoo_118_2053-lower.lp"
   solutionName="incumbent"
   solutionIndex="-1"
   objectiveValue="58"
   solutionTypeValue="3"
   solutionTypeString="primal"
   solutionStatusValue="101"
   solutionStatusString="integer optimal solution"
   solutionMethodString="mip"
   primalFeasible="1"
   dualFeasible="1"
   MIPNodes="0"
   MIPIterations="0"
   writeLevel="3"/>
 <quality
   epInt="1.0000000000000001e-05"
   epRHS="9.9999999999999995e-07"
   maxIntInfeas="0"
   maxPrimalInfeas="0"
   maxX="1"
   maxSlack="1"/>
 <variables>
  <variable name="Y(1,2)" index="1" value="1"/>
  <variable name="Y(2,3)" index="119" value="1"/>
  <variable name="Y(3,4)" index="237" value="1"/>
  <variable name="Y(4,5)" index="355" value="1"/>
  <variable name="Y(5,6)" index="473" value="1"/>
  <variable name="Y(6,7)" index="591" value="1"/>
  <variable name="Y(7,8)" index="709" value="1"/>
  <variable name="Y(8,9)" index="827" value="1"/>
  <variable name="Y(9,10)" index="945" value="1"/>
  <variable name="Y(10,11)" index="1063" value="1"/>
  <variable name="Y(11,12)" index="1181" value="1"/>
  <variable name="Y(12,13)" index="1299" value="1"/>
  <variable name="Y(13,14)" index="1417" value="1"/>
  <variable name="Y(14,15)" index="1535" value="1"/>
  <variable name="Y(15,16)" index="1653" value="1"/>
  <variable name="Y(16,17)" index="1771" value="1"/>
  <variable name="Y(17,18)" index="1889" value="1"/>
  <variable name="Y(18,19)" index="2007" value="1"/>
  <variable name="Y(19,20)" index="2125" value="1"/>
  <variable name="Y(20,21)" index="2243" value="1"/>
  <variable name="Y(21,22)" index="2361" value="1"/>
  <variable name="Y(22,23)" index="2479" value="1"/>
  <variable name="Y(23,24)" index="2597" value="1"/>
  <variable name="Y(24,25)" index="2715" value="1"/>
  <variable name="Y(25,26)" index="2833" value="1"/>
  <variable name="Y(26,27)" index="2951" value="1"/>
  <variable name="Y(27,28)" index="3069" value="1"/>
  <variable name="Y(28,29)" index="3187" value="1"/>
  <variable name="Y(29,31)" index="3306" value="1"/>
  <variable name="Y(30,32)" index="3424" value="1"/>
  <variable name="Y(31,33)" index="3542" value="1"/>
  <variable name="Y(32,34)" index="3660" value="1"/>
  <variable name="Y(33,35)" index="3778" value="1"/>
  <variable name="Y(34,36)" index="3896" value="1"/>
  <variable name="Y(35,37)" index="4014" value="1"/>
  <variable name="Y(36,38)" index="4132" value="1"/>
  <variable name="Y(37,39)" index="4250" value="1"/>
  <variable name="Y(38,40)" index="4368" value="1"/>
  <variable name="Y(39,41)" index="4486" value="1"/>
  <variable name="Y(40,42)" index="4604" value="1"/>
  <variable name="Y(41,43)" index="4722" value="1"/>
  <variable name="Y(42,44)" index="4840" value="1"/>
  <variable name="Y(43,45)" index="4958" value="1"/>
  <variable name="Y(44,47)" index="5077" value="1"/>
  <variable name="Y(45,48)" index="5195" value="1"/>
  <variable name="Y(46,50)" index="5314" value="1"/>
  <variable name="Y(47,51)" index="5432" value="1"/>
  <variable name="Y(48,53)" index="5551" value="1"/>
  <variable name="Y(49,54)" index="5669" value="1"/>
  <variable name="Y(50,55)" index="5787" value="1"/>
  <variable name="Y(51,56)" index="5905" value="1"/>
  <variable name="Y(52,57)" index="6023" value="1"/>
  <variable name="Y(53,58)" index="6141" value="1"/>
  <variable name="Y(54,59)" index="6259" value="1"/>
  <variable name="Y(55,1)" index="6318" value="1"/>
  <variable name="Y(231,52)" index="26961" value="1"/>
  <variable name="Y(564,46)" index="65916" value="1"/>
  <variable name="Y(567,49)" index="66270" value="1"/>
  <variable name="X(1,34,1)" index="240201" value="1"/>
  <variable name="X(1,60,55)" index="242308" value="1"/>
  <variable name="X(2,5,55)" index="244361" value="1"/>
  <variable name="X(2,61,1)" index="246360" value="1"/>
  <variable name="X(3,34,90)" index="248502" value="1"/>
  <variable name="X(3,62,2)" index="250467" value="1"/>
  <variable name="X(4,36,138)" index="252656" value="1"/>
  <variable name="X(4,63,3)" index="254574" value="1"/>
  <variable name="X(5,2,1)" index="256625" value="1"/>
  <variable name="X(5,8,7)" index="258684" value="1"/>
  <variable name="X(5,11,62)" index="260792" value="1"/>
  <variable name="X(5,54,55)" index="262838" value="1"/>
  <variable name="X(5,64,4)" index="264840" value="1"/>
  <variable name="X(6,54,239)" index="267128" value="1"/>
  <variable name="X(6,65,5)" index="268947" value="1"/>
  <variable name="X(7,44,174)" index="271169" value="1"/>
  <variable name="X(7,54,293)" index="273341" value="1"/>
  <variable name="X(7,66,6)" index="275107" value="1"/>
  <variable name="X(8,5,344)" index="277498" value="1"/>
  <variable name="X(8,67,7)" index="279214" value="1"/>
  <variable name="X(9,23,396)" index="281656" value="1"/>
  <variable name="X(9,68,8)" index="283321" value="1"/>
  <variable name="X(10,57,447)" index="285813" value="1"/>
  <variable name="X(10,69,9)" index="287428" value="1"/>
  <variable name="X(11,5,397)" index="289869" value="1"/>
  <variable name="X(11,22,8)" index="291533" value="1"/>
  <variable name="X(11,43,224)" index="293802" value="1"/>
  <variable name="X(11,44,42)" index="295673" value="1"/>
  <variable name="X(11,45,226)" index="297910" value="1"/>
  <variable name="X(11,54,399)" index="300136" value="1"/>
  <variable name="X(11,70,10)" index="301800" value="1"/>
  <variable name="X(12,54,484)" index="304327" value="1"/>
  <variable name="X(12,71,11)" index="305907" value="1"/>
  <variable name="X(13,21,502)" index="308451" value="1"/>
  <variable name="X(13,72,12)" index="310014" value="1"/>
  <variable name="X(14,29,516)" index="312571" value="1"/>
  <variable name="X(14,73,13)" index="314121" value="1"/>
  <variable name="X(15,27,26)" index="316187" value="1"/>
  <variable name="X(15,29,13)" index="318227" value="1"/>
  <variable name="X(15,33,66)" index="320333" value="1"/>
  <variable name="X(15,34,55)" index="322375" value="1"/>
  <variable name="X(15,45,8)" index="324381" value="1"/>
  <variable name="X(15,48,18)" index="326444" value="1"/>
  <variable name="X(15,54,1)" index="328480" value="1"/>
  <variable name="X(15,56,51)" index="330583" value="1"/>
  <variable name="X(15,74,14)" index="332599" value="1"/>
  <variable name="X(16,34,578)" index="335216" value="1"/>
  <variable name="X(16,36,579)" index="337270" value="1"/>
  <variable name="X(16,52,231)" index="338975" value="1"/>
  <variable name="X(16,75,15)" index="340812" value="1"/>
  <variable name="X(17,76,16)" index="342866" value="1"/>
  <variable name="X(18,33,616)" index="345519" value="1"/>
  <variable name="X(18,55,618)" index="347574" value="1"/>
  <variable name="X(18,77,17)" index="349026" value="1"/>
  <variable name="X(19,22,662)" index="351724" value="1"/>
  <variable name="X(19,40,38)" index="353153" value="1"/>
  <variable name="X(19,42,40)" index="355208" value="1"/>
  <variable name="X(19,48,433)" index="357654" value="1"/>
  <variable name="X(19,54,654)" index="359928" value="1"/>
  <variable name="X(19,78,18)" index="361345" value="1"/>
  <variable name="X(20,22,708)" index="364088" value="1"/>
  <variable name="X(20,79,19)" index="365452" value="1"/>
  <variable name="X(21,13,12)" index="367498" value="1"/>
  <variable name="X(21,22,502)" index="370041" value="1"/>
  <variable name="X(21,80,20)" index="371612" value="1"/>
  <variable name="X(22,11,396)" index="374041" value="1"/>
  <variable name="X(22,19,413)" index="376111" value="1"/>
  <variable name="X(22,20,19)" index="377770" value="1"/>
  <variable name="X(22,21,12)" index="379816" value="1"/>
  <variable name="X(22,23,8)" index="381865" value="1"/>
  <variable name="X(22,24,23)" index="383933" value="1"/>
  <variable name="X(22,81,21)" index="385984" value="1"/>
  <variable name="X(23,9,8)" index="388024" value="1"/>
  <variable name="X(23,22,396)" index="390465" value="1"/>
  <variable name="X(23,82,22)" index="392144" value="1"/>
  <variable name="X(24,22,876)" index="395051" value="1"/>
  <variable name="X(24,83,23)" index="396251" value="1"/>
  <variable name="X(25,36,895)" index="399176" value="1"/>
  <variable name="X(25,84,24)" index="400358" value="1"/>
  <variable name="X(26,36,946)" index="403333" value="1"/>
  <variable name="X(26,85,25)" index="404465" value="1"/>
  <variable name="X(27,15,997)" index="407490" value="1"/>
  <variable name="X(27,86,26)" index="408572" value="1"/>
  <variable name="X(28,54,1045)" index="411644" value="1"/>
  <variable name="X(28,87,27)" index="412679" value="1"/>
  <variable name="X(29,14,13)" index="414718" value="1"/>
  <variable name="X(29,15,516)" index="417274" value="1"/>
  <variable name="X(29,58,1092)" index="419903" value="1"/>
  <variable name="X(29,88,28)" index="420892" value="1"/>
  <variable name="X(30,29,1111)" index="424028" value="1"/>
  <variable name="X(31,32,30)" index="425000" value="1"/>
  <variable name="X(31,33,1132)" index="428155" value="1"/>
  <variable name="X(31,90,29)" index="429105" value="1"/>
  <variable name="X(32,31,1184)" index="432313" value="1"/>
  <variable name="X(32,91,30)" index="433212" value="1"/>
  <variable name="X(33,15,617)" index="435852" value="1"/>
  <variable name="X(33,17,16)" index="437304" value="1"/>
  <variable name="X(33,18,17)" index="439358" value="1"/>
  <variable name="X(33,31,29)" index="441423" value="1"/>
  <variable name="X(33,34,616)" index="444063" value="1"/>
  <variable name="X(33,35,33)" index="445533" value="1"/>
  <variable name="X(33,92,31)" index="447584" value="1"/>
  <variable name="X(34,1,55)" index="449661" value="1"/>
  <variable name="X(34,3,2)" index="451661" value="1"/>
  <variable name="X(34,15,1)" index="453713" value="1"/>
  <variable name="X(34,16,15)" index="455780" value="1"/>
  <variable name="X(34,33,16)" index="457834" value="1"/>
  <variable name="X(34,36,3)" index="459874" value="1"/>
  <variable name="X(34,51,47)" index="461971" value="1"/>
  <variable name="X(34,55,50)" index="464027" value="1"/>
  <variable name="X(34,93,32)" index="466062" value="1"/>
  <variable name="X(35,33,1278)" index="469361" value="1"/>
  <variable name="X(35,36,1279)" index="471415" value="1"/>
  <variable name="X(35,94,33)" index="472222" value="1"/>
  <variable name="X(36,4,3)" index="474245" value="1"/>
  <variable name="X(36,16,65)" index="476360" value="1"/>
  <variable name="X(36,25,24)" index="478372" value="1"/>
  <variable name="X(36,26,25)" index="480426" value="1"/>
  <variable name="X(36,34,138)" index="482592" value="1"/>
  <variable name="X(36,35,77)" index="484584" value="1"/>
  <variable name="X(36,37,35)" index="486595" value="1"/>
  <variable name="X(36,38,36)" index="488649" value="1"/>
  <variable name="X(36,39,37)" index="490703" value="1"/>
  <variable name="X(36,50,46)" index="492765" value="1"/>
  <variable name="X(36,54,139)" index="494911" value="1"/>
  <variable name="X(36,55,86)" index="496911" value="1"/>
  <variable name="X(36,57,9)" index="498887" value="1"/>
  <variable name="X(36,95,34)" index="500965" value="1"/>
  <variable name="X(37,36,1363)" index="504347" value="1"/>
  <variable name="X(37,55,1377)" index="506414" value="1"/>
  <variable name="X(37,96,35)" index="507125" value="1"/>
  <variable name="X(38,36,1409)" index="510552" value="1"/>
  <variable name="X(38,58,183)" index="511379" value="1"/>
  <variable name="X(38,97,36)" index="513285" value="1"/>
  <variable name="X(39,36,1440)" index="516742" value="1"/>
  <variable name="X(39,53,48)" index="517403" value="1"/>
  <variable name="X(39,58,1451)" index="520859" value="1"/>
  <variable name="X(39,98,37)" index="521498" value="1"/>
  <variable name="X(40,19,1486)" index="525000" value="1"/>
  <variable name="X(40,99,38)" index="525605" value="1"/>
  <variable name="X(41,48,1529)" index="529149" value="1"/>
  <variable name="X(41,100,39)" index="529712" value="1"/>
  <variable name="X(42,19,1561)" index="533287" value="1"/>
  <variable name="X(42,101,40)" index="533819" value="1"/>
  <variable name="X(43,11,1613)" index="537445" value="1"/>
  <variable name="X(43,54,1612)" index="539497" value="1"/>
  <variable name="X(43,102,41)" index="539979" value="1"/>
  <variable name="X(44,7,402)" index="542393" value="1"/>
  <variable name="X(44,11,301)" index="544345" value="1"/>
  <variable name="X(44,103,42)" index="546139" value="1"/>
  <variable name="X(45,11,8)" index="548158" value="1"/>
  <variable name="X(45,15,396)" index="550599" value="1"/>
  <variable name="X(45,59,54)" index="552310" value="1"/>
  <variable name="X(45,104,43)" index="554352" value="1"/>
  <variable name="X(46,48,1699)" index="558061" value="1"/>
  <variable name="X(46,105,564)" index="558979" value="1"/>
  <variable name="X(47,48,1730)" index="562198" value="1"/>
  <variable name="X(47,106,44)" index="562565" value="1"/>
  <variable name="X(48,15,1529)" index="566103" value="1"/>
  <variable name="X(48,19,18)" index="566645" value="1"/>
  <variable name="X(48,41,39)" index="568719" value="1"/>
  <variable name="X(48,46,564)" index="571297" value="1"/>
  <variable name="X(48,47,44)" index="572830" value="1"/>
  <variable name="X(48,49,567)" index="575406" value="1"/>
  <variable name="X(48,107,45)" index="576937" value="1"/>
  <variable name="X(49,48,1798)" index="580743" value="1"/>
  <variable name="X(49,108,567)" index="581565" value="1"/>
  <variable name="X(50,36,1806)" index="584857" value="1"/>
  <variable name="X(50,109,46)" index="585150" value="1"/>
  <variable name="X(51,34,1810)" index="588967" value="1"/>
  <variable name="X(51,110,47)" index="589257" value="1"/>
  <variable name="X(52,16,1814)" index="593077" value="1"/>
  <variable name="X(52,111,231)" index="593547" value="1"/>
  <variable name="X(53,39,1842)" index="597211" value="1"/>
  <variable name="X(53,112,48)" index="597470" value="1"/>
  <variable name="X(54,5,1)" index="599476" value="1"/>
  <variable name="X(54,6,5)" index="601533" value="1"/>
  <variable name="X(54,7,6)" index="603587" value="1"/>
  <variable name="X(54,11,146)" index="605780" value="1"/>
  <variable name="X(54,12,11)" index="607698" value="1"/>
  <variable name="X(54,15,55)" index="609795" value="1"/>
  <variable name="X(54,19,67)" index="611860" value="1"/>
  <variable name="X(54,28,27)" index="613873" value="1"/>
  <variable name="X(54,36,56)" index="615955" value="1"/>
  <variable name="X(54,43,41)" index="617993" value="1"/>
  <variable name="X(54,58,53)" index="620058" value="1"/>
  <variable name="X(54,113,49)" index="622107" value="1"/>
  <variable name="X(55,18,151)" index="624262" value="1"/>
  <variable name="X(55,34,1914)" index="628078" value="1"/>
  <variable name="X(55,36,618)" index="628835" value="1"/>
  <variable name="X(55,37,641)" index="630911" value="1"/>
  <variable name="X(55,114,50)" index="632373" value="1"/>
  <variable name="X(56,15,1944)" index="636320" value="1"/>
  <variable name="X(56,115,51)" index="636480" value="1"/>
  <variable name="X(57,10,9)" index="638491" value="1"/>
  <variable name="X(57,36,447)" index="640982" value="1"/>
  <variable name="X(57,116,52)" index="642640" value="1"/>
  <variable name="X(58,29,1451)" index="646092" value="1"/>
  <variable name="X(58,38,1092)" index="647786" value="1"/>
  <variable name="X(58,39,1093)" index="649840" value="1"/>
  <variable name="X(58,54,2012)" index="652812" value="1"/>
  <variable name="X(58,117,53)" index="652906" value="1"/>
  <variable name="X(59,45,2049)" index="656955" value="1"/>
  <variable name="X(59,118,54)" index="657013" value="1"/>
 </variables>
</CPLEXSolution>
